VACCINE = Vaccine(1..4);
m = 24;
age = [AGED, AGED, SENIOR, ADULT, CHILD, SENIOR, AGED, ANCIENT, BABY, SENIOR, CHILD, YOUTH, BABY, ADULT, BABY, BABY, YOUTH, AGED, BABY, SENIOR, YOUTH, AGED, CHILD, SENIOR];
gender = [OTHER, OTHER, MALE, MALE, MALE, OTHER, OTHER, FEMALE, FEMALE, OTHER, FEMALE, FEMALE, MALE, MALE, OTHER, MALE, MALE, MALE, FEMALE, FEMALE, FEMALE, MALE, OTHER, FEMALE];
health = [COMPROMISED, COMPROMISED, GOOD, COMPROMISED, GOOD, POOR, GOOD, COMPROMISED, COMPROMISED, GOOD, POOR, POOR, POOR, COMPROMISED, GOOD, GOOD, POOR, GOOD, GOOD, GOOD, GOOD, GOOD, POOR, COMPROMISED];
exposure = [LOW, EXTREME, HIGH, LOW, LOW, EXTREME, HIGH, HIGH, HIGH, EXTREME, HIGH, LOW, AVERAGE, LOW, HIGH, LOW, HIGH, HIGH, AVERAGE, HIGH, EXTREME, EXTREME, LOW, AVERAGE];
size = [9, 9, 9, 8, 5, 6, 8, 6, 5, 6, 8, 9, 7, 5, 7, 7, 7, 6, 8, 7, 9, 5, 5, 9];
minsize = 4;
age_group_min = [0, 0, 1, 0, 1, 0, 0];
age_group_max = [15, 8, 24, 11, 11, 24, 20];
max_people_diff = 86;
max_share_vaccines = 3;
health_information = {9, 14, 20};
exposure_information = {6, 13, 15, 18};